Linux optc-03-10 4.15.0-88-generic #88-Ubuntu SMP Tue Feb 11 20:11:34 UTC 2020 x86_64 x86_64 x86_64 GNU/Linux

top - 23:18:40 up 3 days, 10:10,  0 users,  load average: 0,06, 0,64, 1,01
Tasks: 405 gesamt,   2 laufend, 207 schlafend,   0 gestoppt,   0 Zombie
%CPU(s):  6,5 be,  0,1 sy,  0,0 ni, 93,4 un,  0,0 wa,  0,0 hi,  0,0 si,  0,0 st
KiB Spch : 65916192 gesamt, 62518268 frei,   628712 belegt,  2769212 Puff/Cache
KiB Swap:  8388604 gesamt,  8255740 frei,   132864 belegt. 64714208 verfü Spch 

  PID USER      PR  NI    VIRT    RES    SHR S  %CPU %MEM     ZEIT+ BEFEHL
24346 bzfhende  20   0   52808   4332   3452 R  15,4  0,0   0:00.04 top
24339 bzfhende  20   0   52808   4152   3268 R   7,7  0,0   0:00.04 top
    1 root      20   0  233680   6252   4336 S   0,0  0,0   0:23.40 systemd
    2 root      20   0       0      0      0 S   0,0  0,0   0:00.38 kthreadd
    4 root       0 -20       0      0      0 I   0,0  0,0   0:00.00 kworker/0:+
    5 root      20   0       0      0      0 I   0,0  0,0   0:15.66 kworker/u9+
    7 root       0 -20       0      0      0 I   0,0  0,0   0:00.00 mm_percpu_+
    8 root      20   0       0      0      0 S   0,0  0,0   0:00.95 ksoftirqd/0

hard time limit: 00-04:10:00
hard mem limit: 27600

SLURM jobID: 6407529

@01 /nfs/OPTI/bzfhende/instances//./miplib2010_publically_available/instances/l61x114.mps.gz ===========
-----------------------------
So 8. Mär 23:18:40 CET 2020
-----------------------------
@03 1583705920
@05 7200
SCIP version 7.0.0 [precision: 8 byte] [memory: block] [mode: optimized] [LP solver: CPLEX 12.10.0.0] [GitHash: 297532de76]
Copyright (C) 2002-2020 Konrad-Zuse-Zentrum fuer Informationstechnik Berlin (ZIB)

External codes: 
  Readline 7.0         GNU library for command line editing (gnu.org/s/readline)
  CPLEX 12.10.0.0      Linear Programming Solver developed by IBM (www.cplex.com)
  CppAD 20180000.0     Algorithmic Differentiation of C++ algorithms developed by B. Bell (www.coin-or.org/CppAD)
  ZLIB 1.2.11          General purpose compression library by J. Gailly and M. Adler (zlib.net)
  GMP 6.1.2            GNU Multiple Precision Arithmetic Library developed by T. Granlund (gmplib.org)
  bliss 0.73p          Computing Graph Automorphism Groups by T. Junttila and P. Kaski (http://www.tcs.hut.fi/Software/bliss/)

user parameter file <scip.set> not found - using default parameters

SCIP> 
SCIP> set load /home/optimi/bzfhende/opti/scip-opti/check/../settings/periodic_reeport.set
loaded parameter file </home/optimi/bzfhende/opti/scip-opti/check/../settings/periodic_report.set>
SCIP> set limits time 7200
limits/time = 7200
SCIP> set limits nodes 2100000000
limits/nodes = 2100000000
SCIP> set limits memory 25000
limits/memory = 25000
SCIP> set lp advanced threads 1
lp/threads = 1
SCIP> set timing clocktype 1
timing/clocktype = 1
SCIP> set display freq 10000
display/freq = 10000
SCIP> set memory savefac 1.0
memory/savefac = 1
SCIP> set save /home/optimi/bzfhende/opti/scip-opti/check/treesize.prediction.fixxedCostNetworkFlow.seeds/bzfhende.instancegroups_fixedCostNetworkFlow.19_l61x114..scip.M620.periodic_report.set
saved parameter file </home/optimi/bzfhende/opti/scip-opti/check/treesize.prediction.fixedCostNetworkFlow.seeds/bzfhende.instancegroups_fixedCostNetworkFlow.19_l61x114.scip.M620.periodic_report.set>
SCIP> read /nfs/OPTI/bzfhende/instances//./miplib2010_publically_available/instannces/l61x114.mps.gz

read problem </nfs/OPTI/bzfhende/instances//./miplib2010_publically_available/instances/l61x114.mps.gz>
============

original problem has 228 variables (114 bin, 0 int, 0 impl, 114 cont) and 175 constraints
SCIP> display parameters

number of parameters = 2603
non-default parameter settings:
display/freq = 10000
limits/time = 7200
limits/nodes = 2100000000
limits/memory = 25000
lp/threads = 1
memory/savefac = 1
timing/clocktype = 1
estimation/restarts/restartpolicy = n
estimation/restarts/restartlimit = 0
estimation/reportfreq = 100
estimation/treeprofile/enabled = TRUE

SCIP> optimize

presolving:
(round 1, fast)       65 del vars, 62 del conss, 0 add conss, 125 chg bounds, 0 chg sides, 14 chg coeffs, 0 upgd conss, 0 impls, 0 clqs
(round 2, fast)       65 del vars, 62 del conss, 0 add conss, 139 chg bounds, 0 chg sides, 19 chg coeffs, 0 upgd conss, 0 impls, 0 clqs
(round 3, fast)       65 del vars, 62 del conss, 0 add conss, 149 chg bounds, 0 chg sides, 24 chg coeffs, 0 upgd conss, 0 impls, 0 clqs
(round 4, fast)       65 del vars, 62 del conss, 0 add conss, 155 chg bounds, 0 chg sides, 28 chg coeffs, 0 upgd conss, 0 impls, 0 clqs
(round 5, fast)       65 del vars, 62 del conss, 0 add conss, 157 chg bounds, 0 chg sides, 29 chg coeffs, 0 upgd conss, 0 impls, 0 clqs
(round 6, fast)       65 del vars, 62 del conss, 0 add conss, 159 chg bounds, 0 chg sides, 30 chg coeffs, 0 upgd conss, 0 impls, 0 clqs
(round 7, fast)       65 del vars, 62 del conss, 0 add conss, 161 chg bounds, 0 chg sides, 31 chg coeffs, 0 upgd conss, 0 impls, 0 clqs
(round 8, fast)       65 del vars, 62 del conss, 0 add conss, 163 chg bounds, 0 chg sides, 32 chg coeffs, 0 upgd conss, 0 impls, 0 clqs
(round 9, fast)       65 del vars, 62 del conss, 0 add conss, 164 chg bounds, 0 chg sides, 33 chg coeffs, 0 upgd conss, 0 impls, 0 clqs
(round 10, exhaustive) 65 del vars, 63 del conss, 0 add conss, 164 chg bounds, 1 chg sides, 33 chg coeffs, 0 upgd conss, 0 impls, 0 clqs
(round 11, exhaustive) 65 del vars, 63 del conss, 0 add conss, 164 chg bounds, 1 chg sides, 33 chg coeffs, 54 upgd conss, 0 impls, 0 clqs
(round 12, exhaustive) 65 del vars, 63 del conss, 0 add conss, 166 chg bounds, 1 chg sides, 33 chg coeffs, 54 upgd conss, 54 impls, 0 clqs
(round 13, fast)       65 del vars, 63 del conss, 0 add conss, 166 chg bounds, 1 chg sides, 34 chg coeffs, 54 upgd conss, 54 impls, 0 clqs
   (0.0s) probing: 51/54 (94.4%) - 0 fixings, 0 aggregations, 0 implications, 0 bound changes
   (0.0s) probing aborted: 50/50 successive totally useless probings
(round 14, exhaustive) 65 del vars, 63 del conss, 0 add conss, 166 chg bounds, 1 chg sides, 37 chg coeffs, 54 upgd conss, 54 impls, 0 clqs
(round 15, fast)       65 del vars, 64 del conss, 0 add conss, 167 chg bounds, 1 chg sides, 37 chg coeffs, 54 upgd conss, 54 impls, 0 clqs
   (0.0s) probing cycle finished: starting next cycle
   (0.0s) probing: 2/54 (3.7%) - 0 fixings, 0 aggregations, 0 implications, 0 bound changes
   (0.0s) probing aborted: 50/50 successive totally useless probings
   (0.0s) symmetry computation started: requiring (bin +, int +, cont +), (fixed: bin -, int -, cont -)
   (0.0s) no symmetry present
presolving (16 rounds: 16 fast, 5 medium, 5 exhaustive):
 65 deleted vars, 64 deleted constraints, 0 added constraints, 167 tightened bounds, 0 added holes, 1 changed sides, 37 changed coefficients
 54 implications, 0 cliques
presolved problem has 163 variables (54 bin, 0 int, 0 impl, 109 cont) and 111 constraints
     54 constraints of type <varbound>
     57 constraints of type <linear>
Presolving Time: 0.01

 time | node  | left  |LP iter|LP it/n|mem/heur|mdpt |vars |cons |rows |cuts |sepa|confs|strbr|  dualbound   | primalbound  |  gap   | compl. 
p 0.0s|     1 |     0 |    43 |     - |   locks|   0 | 163 | 111 | 111 |   0 |  0 |   0 |   0 | 1.127000e+03 | 7.169400e+04 |6261.49%| unknown
i 0.0s|     1 |     0 |    43 |     - |  oneopt|   0 | 163 | 111 | 111 |   0 |  0 |   0 |   0 | 1.127000e+03 | 6.138400e+04 |5346.67%| unknown
  0.0s|     1 |     0 |    90 |     - |  2138k |   0 | 163 | 111 | 111 |   0 |  0 |   0 |   0 | 5.628974e+04 | 6.138400e+04 |   9.05%| unknown
r 0.0s|     1 |     0 |    90 |     - |simplero|   0 | 163 | 111 | 111 |   0 |  0 |   0 |   0 | 5.628974e+04 | 6.117400e+04 |   8.68%| unknown
  0.0s|     1 |     0 |   118 |     - |  2496k |   0 | 163 | 111 | 131 |  20 |  1 |   0 |   0 | 5.943001e+04 | 6.117400e+04 |   2.93%| unknown
  0.0s|     1 |     0 |   125 |     - |  2591k |   0 | 163 | 111 | 139 |  28 |  2 |   0 |   0 | 5.977749e+04 | 6.117400e+04 |   2.34%| unknown
r 0.0s|     1 |     0 |   125 |     - |simplero|   0 | 163 | 111 | 139 |  28 |  2 |   0 |   0 | 5.977749e+04 | 6.116000e+04 |   2.31%| unknown
  0.0s|     1 |     0 |   131 |     - |  2630k |   0 | 163 | 111 | 140 |  29 |  3 |   0 |   0 | 5.994558e+04 | 6.116000e+04 |   2.03%| unknown
  0.0s|     1 |     0 |   133 |     - |  2647k |   0 | 163 | 111 | 142 |  31 |  4 |   0 |   0 | 6.000988e+04 | 6.116000e+04 |   1.92%| unknown
  0.0s|     1 |     0 |   136 |     - |  2678k |   0 | 163 | 111 | 145 |  34 |  5 |   0 |   0 | 6.008500e+04 | 6.116000e+04 |   1.79%| unknown
d 0.0s|     1 |     0 |   136 |     - |farkasdi|   0 | 163 | 111 | 145 |   0 |  7 |   0 |   0 | 6.008500e+04 | 6.008500e+04 |   0.00%| unknown
  0.0s|     1 |     0 |   136 |     - |  2680k |   0 | 163 | 111 | 145 |  34 |  7 |   0 |   0 | 6.008500e+04 | 6.008500e+04 |   0.00%| unknown
Report 1
Time Elapsed: 0.03
Estim. Tree Size   :          1
Estimation Tree    : 1 nodes (1 visited, 0 inner, 1 leaves, 0 open), weight: 1.0000 completed 1.0000
Estimations        :      estim      value      trend resolution     smooth
  wbe              :          1          -          -          -          -
  tree-profile     :         -1          -          -          -          -
  gap              :          1    1.00000    1.00000          1          1
  tree-weight      :          1    1.00000    1.00000          1          1
  leaf-frequency   :          1    0.50000    1.00000          1          1
  ssg              :          1    0.00000   -1.00000          1          1
  open-nodes       :          1    0.00000    0.00000          1          1
End of Report 1


SCIP Status        : problem is solved [optimal solution found]
Solving Time (sec) : 0.03
Solving Nodes      : 1
Primal Bound       : +6.00850000000000e+04 (9 solutions)
Dual Bound         : +6.00850000000000e+04
Gap                : 0.00 %

SCIP> display statistics

SCIP Status        : problem is solved [optimal solution found]
Total Time         :       0.03
  solving          :       0.03
  presolving       :       0.01 (included in solving)
  reading          :       0.00
  copying          :       0.00 (0 times copied the problem)
Original Problem   :
  Problem name     : l61x114
  Variables        : 228 (114 binary, 0 integer, 0 implicit integer, 114 continuous)
  Constraints      : 175 initial, 175 maximal
  Objective        : minimize, 174 non-zeros (abs.min = 1, abs.max = 490)
Presolved Problem  :
  Problem name     : t_l61x114
  Variables        : 163 (54 binary, 0 integer, 0 implicit integer, 109 continuous)
  Constraints      : 111 initial, 111 maximal
  Objective        : minimize, 163 non-zeros (abs.min = 1, abs.max = 490)
  Nonzeros         : 328 constraint, 0 clique table
Presolvers         :   ExecTime  SetupTime  Calls  FixedVars   AggrVars   ChgTypes  ChgBounds   AddHoles    DelCons    AddCons   ChgSides   ChgCoefs
  boundshift       :       0.00       0.00      0          0          0          0          0          0          0          0          0          0
  convertinttobin  :       0.00       0.00      0          0          0          0          0          0          0          0          0          0
  domcol           :       0.00       0.00      3          0          0          0          0          0          0          0          0          0
  dualagg          :       0.00       0.00      0          0          0          0          0          0          0          0          0          0
  dualcomp         :       0.00       0.00      3          0          0          0          0          0          0          0          0          0
  dualinfer        :       0.00       0.00      0          0          0          0          0          0          0          0          0          0
  dualsparsify     :       0.00       0.00      2          0          0          0          0          0          0          0          0          3
  gateextraction   :       0.00       0.00      0          0          0          0          0          0          0          0          0          0
  implics          :       0.00       0.00      5          0          0          0          0          0          0          0          0          0
  inttobinary      :       0.00       0.00      0          0          0          0          0          0          0          0          0          0
  qpkktref         :       0.00       0.00      0          0          0          0          0          0          0          0          0          0
  redvub           :       0.00       0.00      0          0          0          0          0          0          0          0          0          0
  sparsify         :       0.00       0.00      1          0          0          0          0          0          0          0          0          0
  stuffing         :       0.00       0.00      0          0          0          0          0          0          0          0          0          0
  trivial          :       0.00       0.00     16          0          0          0          0          0          0          0          0          0
  tworowbnd        :       0.00       0.00      3          0          0          0          2          0          0          0          0          0
  dualfix          :       0.00       0.00     16         54          0          0          0          0          0          0          0          0
  genvbounds       :       0.00       0.00      0          0          0          0          0          0          0          0          0          0
  probing          :       0.01       0.00      2          0          0          0          0          0          0          0          0          0
  pseudoobj        :       0.00       0.00      0          0          0          0          0          0          0          0          0          0
  symmetry         :       0.00       0.00      1          0          0          0          0          0          0          0          0          0
  vbounds          :       0.00       0.00      0          0          0          0          0          0          0          0          0          0
  varbound         :       0.00       0.00      8          0          0          0          0          0          0          0          0          1
  linear           :       0.00       0.00     21          6          5          0        165          0         64          0          1         33
  benders          :       0.00       0.00      0          0          0          0          0          0          0          0          0          0
  components       :       0.00       0.00      1          0          0          0          0          0          0          0          0          0
  root node        :          -          -      -          0          -          -          0          -          -          -          -          -
Constraints        :     Number  MaxNumber  #Separate #Propagate    #EnfoLP    #EnfoRelax  #EnfoPS    #Check   #ResProp    Cutoffs    DomReds       Cuts    Applied      Conss   Children
  benderslp        :          0          0          0          0          0          0          0         23          0          0          0          0          0          0          0
  integral         :          0          0          0          0          0          0          0         23          0          0          0          0          0          0          0
  varbound         :         54         54          6        193          0          0          0         17          0          0          0          0          0          0          0
  linear           :         57         57          6        193          0          0          0         12          0          0          0          0          0          0          0
  benders          :          0          0          0          0          0          0          0         10          0          0          0          0          0          0          0
  countsols        :          0          0          0          0          0          0          0         10          0          0          0          0          0          0          0
  components       :          0          0          0          0          0          0          0          0          0          0          0          0          0          0          0
Constraint Timings :  TotalTime  SetupTime   Separate  Propagate     EnfoLP     EnfoPS     EnfoRelax   Check    ResProp    SB-Prop
  benderslp        :       0.00       0.00       0.00       0.00       0.00       0.00       0.00       0.00       0.00       0.00
  integral         :       0.00       0.00       0.00       0.00       0.00       0.00       0.00       0.00       0.00       0.00
  varbound         :       0.00       0.00       0.00       0.00       0.00       0.00       0.00       0.00       0.00       0.00
  linear           :       0.01       0.00       0.00       0.01       0.00       0.00       0.00       0.00       0.00       0.00
  benders          :       0.00       0.00       0.00       0.00       0.00       0.00       0.00       0.00       0.00       0.00
  countsols        :       0.00       0.00       0.00       0.00       0.00       0.00       0.00       0.00       0.00       0.00
  components       :       0.00       0.00       0.00       0.00       0.00       0.00       0.00       0.00       0.00       0.00
Propagators        : #Propagate   #ResProp    Cutoffs    DomReds
  dualfix          :          2          0          0          0
  genvbounds       :          0          0          0          0
  nlobbt           :          0          0          0          0
  obbt             :          0          0          0          0
  probing          :          0          0          0          0
  pseudoobj        :          9          0          0          0
  redcost          :          7          0          0          0
  rootredcost      :          0          0          0          0
  symmetry         :          0          0          0          0
  vbounds          :         63          0          0          0
Propagator Timings :  TotalTime  SetupTime   Presolve  Propagate    ResProp    SB-Prop
  dualfix          :       0.00       0.00       0.00       0.00       0.00       0.00
  genvbounds       :       0.00       0.00       0.00       0.00       0.00       0.00
  nlobbt           :       0.00       0.00       0.00       0.00       0.00       0.00
  obbt             :       0.00       0.00       0.00       0.00       0.00       0.00
  probing          :       0.01       0.00       0.01       0.00       0.00       0.00
  pseudoobj        :       0.00       0.00       0.00       0.00       0.00       0.00
  redcost          :       0.00       0.00       0.00       0.00       0.00       0.00
  rootredcost      :       0.00       0.00       0.00       0.00       0.00       0.00
  symmetry         :       0.00       0.00       0.00       0.00       0.00       0.00
  vbounds          :       0.00       0.00       0.00       0.00       0.00       0.00
Conflict Analysis  :       Time      Calls    Success    DomReds  Conflicts   Literals    Reconvs ReconvLits   Dualrays   Nonzeros   LP Iters   (pool size: [--,--])
  propagation      :       0.00          0          0          -          0        0.0          0        0.0          -          -          -
  infeasible LP    :       0.00          0          0          -          0        0.0          0        0.0          0        0.0          0
  bound exceed. LP :       0.00          0          0          -          0        0.0          0        0.0          0        0.0          0
  strong branching :       0.00          0          0          -          0        0.0          0        0.0          -          -          0
  pseudo solution  :       0.00          0          0          -          0        0.0          0        0.0          -          -          -
  applied globally :       0.00          -          -          0          0        0.0          -          -          0          -          -
  applied locally  :          -          -          -          0          0        0.0          -          -          0          -          -
Separators         :   ExecTime  SetupTime      Calls    Cutoffs    DomReds       Cuts    Applied      Conss
  cut pool         :       0.00                    10          -          -         55          -          -    (maximal pool size: 179)
  aggregation      :       0.01       0.00          5          0          0         98          0          0
  cgmip            :       0.00       0.00          0          0          0          0          0          0
  clique           :       0.00       0.00          1          0          0          0          0          0
  closecuts        :       0.00       0.00          0          0          0          0          0          0
  cmir             :       0.00       0.00          0          0          0          0          3          0
  convexproj       :       0.00       0.00          0          0          0          0          0          0
  disjunctive      :       0.00       0.00          0          0          0          0          0          0
  eccuts           :       0.00       0.00          0          0          0          0          0          0
  flowcover        :       0.00       0.00          0          0          0          0          4          0
  gauge            :       0.00       0.00          0          0          0          0          0          0
  gomory           :       0.00       0.00          5          0          0         58         27          0
  impliedbounds    :       0.00       0.00          5          0          0          0          0          0
  intobj           :       0.00       0.00          0          0          0          0          0          0
  mcf              :       0.00       0.00          5          0          0         23          0          0
  oddcycle         :       0.00       0.00          0          0          0          0          0          0
  rapidlearning    :       0.00       0.00          0          0          0          0          0          0
  strongcg         :       0.00       0.00          5          0          0          0          0          0
  zerohalf         :       0.00       0.00          5          0          0          0          0          0
Pricers            :   ExecTime  SetupTime      Calls       Vars
  problem variables:       0.00          -          0          0
Branching Rules    :   ExecTime  SetupTime   BranchLP  BranchExt   BranchPS    Cutoffs    DomReds       Cuts      Conss   Children
  allfullstrong    :       0.00       0.00          0          0          0          0          0          0          0          0
  cloud            :       0.00       0.00          0          0          0          0          0          0          0          0
  distribution     :       0.00       0.00          0          0          0          0          0          0          0          0
  fullstrong       :       0.00       0.00          0          0          0          0          0          0          0          0
  inference        :       0.00       0.00          0          0          0          0          0          0          0          0
  leastinf         :       0.00       0.00          0          0          0          0          0          0          0          0
  lookahead        :       0.00       0.00          0          0          0          0          0          0          0          0
  mostinf          :       0.00       0.00          0          0          0          0          0          0          0          0
  multaggr         :       0.00       0.00          0          0          0          0          0          0          0          0
  nodereopt        :       0.00       0.00          0          0          0          0          0          0          0          0
  pscost           :       0.00       0.00          0          0          0          0          0          0          0          0
  random           :       0.00       0.00          0          0          0          0          0          0          0          0
  relpscost        :       0.00       0.00          0          0          0          0          0          0          0          0
  vanillafullstrong:       0.00       0.00          0          0          0          0          0          0          0          0
Primal Heuristics  :   ExecTime  SetupTime      Calls      Found       Best
  LP solutions     :       0.00          -          -          0          0
  relax solutions  :       0.00          -          -          0          0
  pseudo solutions :       0.00          -          -          0          0
  strong branching :       0.00          -          -          0          0
  actconsdiving    :       0.00       0.00          0          0          0
  adaptivediving   :       0.00       0.00          0          0          0
  alns             :       0.00       0.00          0          0          0
  bound            :       0.00       0.00          0          0          0
  clique           :       0.00       0.00          0          0          0
  coefdiving       :       0.00       0.00          0          0          0
  completesol      :       0.00       0.00          0          0          0
  conflictdiving   :       0.00       0.00          0          0          0
  crossover        :       0.00       0.00          0          0          0
  dins             :       0.00       0.00          0          0          0
  distributiondivin:       0.00       0.00          0          0          0
  dualval          :       0.00       0.00          0          0          0
  farkasdiving     :       0.00       0.00          1          1          1
  feaspump         :       0.00       0.00          0          0          0
  fixandinfer      :       0.00       0.00          0          0          0
  fracdiving       :       0.00       0.00          0          0          0
  gins             :       0.00       0.00          0          0          0
  guideddiving     :       0.00       0.00          0          0          0
  indicator        :       0.00       0.00          0          0          0
  intdiving        :       0.00       0.00          0          0          0
  intshifting      :       0.00       0.00          0          0          0
  linesearchdiving :       0.00       0.00          0          0          0
  localbranching   :       0.00       0.00          0          0          0
  locks            :       0.00       0.00          1          1          1
  lpface           :       0.00       0.00          0          0          0
  mpec             :       0.00       0.00          0          0          0
  multistart       :       0.00       0.00          0          0          0
  mutation         :       0.00       0.00          0          0          0
  nlpdiving        :       0.00       0.00          0          0          0
  objpscostdiving  :       0.00       0.00          0          0          0
  octane           :       0.00       0.00          0          0          0
  ofins            :       0.00       0.00          0          0          0
  oneopt           :       0.00       0.00          3          1          1
  padm             :       0.00       0.00          0          0          0
  proximity        :       0.00       0.00          0          0          0
  pscostdiving     :       0.00       0.00          0          0          0
  randrounding     :       0.01       0.00          5          0          0
  rens             :       0.00       0.00          0          0          0
  reoptsols        :       0.00       0.00          0          0          0
  repair           :       0.00       0.00          0          0          0
  rins             :       0.00       0.00          0          0          0
  rootsoldiving    :       0.00       0.00          0          0          0
  rounding         :       0.00       0.00          5          0          0
  shiftandpropagate:       0.00       0.00          0          0          0
  shifting         :       0.00       0.00          5          1          0
  simplerounding   :       0.00       0.00          6          5          2
  subnlp           :       0.00       0.00          0          0          0
  trivial          :       0.00       0.00          2          0          0
  trivialnegation  :       0.00       0.00          0          0          0
  trustregion      :       0.00       0.00          0          0          0
  trysol           :       0.00       0.00          0          0          0
  twoopt           :       0.00       0.00          0          0          0
  undercover       :       0.00       0.00          0          0          0
  vbounds          :       0.00       0.00          0          0          0
  veclendiving     :       0.00       0.00          0          0          0
  zeroobj          :       0.00       0.00          0          0          0
  zirounding       :       0.00       0.00          0          0          0
  other solutions  :          -          -          -          0          -
Diving (single)    :      Calls      Nodes   LP Iters Backtracks  Conflicts   MinDepth   MaxDepth   AvgDepth  RoundSols  NLeafSols  MinSolDpt  MaxSolDpt  AvgSolDpt
  actconsdiving    :          0          -          -          -          -          -          -          -          -          -          -          -          -
  coefdiving       :          0          -          -          -          -          -          -          -          -          -          -          -          -
  conflictdiving   :          0          -          -          -          -          -          -          -          -          -          -          -          -
  distributiondivin:          0          -          -          -          -          -          -          -          -          -          -          -          -
  farkasdiving     :          1          0          0          0          0          1          1        1.0          0          1          1          1        1.0
  fracdiving       :          0          -          -          -          -          -          -          -          -          -          -          -          -
  guideddiving     :          0          -          -          -          -          -          -          -          -          -          -          -          -
  linesearchdiving :          0          -          -          -          -          -          -          -          -          -          -          -          -
  pscostdiving     :          0          -          -          -          -          -          -          -          -          -          -          -          -
  veclendiving     :          0          -          -          -          -          -          -          -          -          -          -          -          -
Diving (adaptive)  :      Calls      Nodes   LP Iters Backtracks  Conflicts   MinDepth   MaxDepth   AvgDepth  RoundSols  NLeafSols  MinSolDpt  MaxSolDpt  AvgSolDpt
  actconsdiving    :          0          -          -          -          -          -          -          -          -          -          -          -          -
  coefdiving       :          0          -          -          -          -          -          -          -          -          -          -          -          -
  conflictdiving   :          0          -          -          -          -          -          -          -          -          -          -          -          -
  distributiondivin:          0          -          -          -          -          -          -          -          -          -          -          -          -
  farkasdiving     :          0          -          -          -          -          -          -          -          -          -          -          -          -
  fracdiving       :          0          -          -          -          -          -          -          -          -          -          -          -          -
  guideddiving     :          0          -          -          -          -          -          -          -          -          -          -          -          -
  linesearchdiving :          0          -          -          -          -          -          -          -          -          -          -          -          -
  pscostdiving     :          0          -          -          -          -          -          -          -          -          -          -          -          -
  veclendiving     :          0          -          -          -          -          -          -          -          -          -          -          -          -
Neighborhoods      :      Calls  SetupTime  SolveTime SolveNodes       Sols       Best       Exp3  EpsGreedy        UCB TgtFixRate  Opt  Inf Node Stal  Sol  Usr Othr Actv
  rens             :          0       0.00       0.00          0          0          0    0.00000   -1.00000    1.00000      0.900    0    0    0    0    0    0    0    1
  rins             :          0       0.00       0.00          0          0          0    0.00000   -1.00000    1.00000      0.900    0    0    0    0    0    0    0    1
  mutation         :          0       0.00       0.00          0          0          0    0.00000   -1.00000    1.00000      0.900    0    0    0    0    0    0    0    1
  localbranching   :          0       0.00       0.00          0          0          0    0.00000   -1.00000    1.00000      0.900    0    0    0    0    0    0    0    1
  crossover        :          0       0.00       0.00          0          0          0    0.00000   -1.00000    1.00000      0.900    0    0    0    0    0    0    0    1
  proximity        :          0       0.00       0.00          0          0          0    0.00000   -1.00000    1.00000      0.900    0    0    0    0    0    0    0    1
  zeroobjective    :          0       0.00       0.00          0          0          0    0.00000   -1.00000    1.00000      0.900    0    0    0    0    0    0    0    1
  dins             :          0       0.00       0.00          0          0          0    0.00000   -1.00000    1.00000      0.900    0    0    0    0    0    0    0    1
  trustregion      :          0       0.00       0.00          0          0          0    0.00000   -1.00000    1.00000      0.900    0    0    0    0    0    0    0    0
LP                 :       Time      Calls Iterations  Iter/call   Iter/sec  Time-0-It Calls-0-It    ItLimit
  primal LP        :       0.00          0          0       0.00          -       0.00          0
  dual LP          :       0.00          6         93      15.50          -       0.00          0
  lex dual LP      :       0.00          0          0       0.00          -
  barrier LP       :       0.00          0          0       0.00          -       0.00          0
  resolve instable :       0.00          0          0       0.00          -
  diving/probing LP:       0.00          1         43      43.00          -
  strong branching :       0.00          0          0       0.00          -          -          -          0
    (at root node) :          -          0          0       0.00          -
  conflict analysis:       0.00          0          0       0.00          -
B&B Tree           :
  number of runs   :          1
  nodes            :          1 (0 internal, 1 leaves)
  feasible leaves  :          0
  infeas. leaves   :          0
  objective leaves :          1
  nodes (total)    :          1 (0 internal, 1 leaves)
  nodes left       :          0
  max depth        :          0
  max depth (total):          0
  backtracks       :          0 (0.0%)
  early backtracks :          0 (0.0%)
  nodes exc. ref.  :          0 (0.0%)
  delayed cutoffs  :          0
  repropagations   :          0 (0 domain reductions, 0 cutoffs)
  avg switch length:       2.00
  switching time   :       0.00
Estim. Tree Size   :          1
Estimation Tree    : 1 nodes (1 visited, 0 inner, 1 leaves, 0 open), weight: 1.0000 completed 1.0000
Estimations        :      estim      value      trend resolution     smooth
  wbe              :          1          -          -          -          -
  tree-profile     :         -1          -          -          -          -
  gap              :          1    1.00000    1.00000          1          1
  tree-weight      :          1    1.00000    1.00000          1          1
  leaf-frequency   :          1    0.50000    1.00000          1          1
  ssg              :          1    0.00000   -1.00000          1          1
  open-nodes       :          1    0.00000    0.00000          1          1
Root Node          :
  First LP value   : +5.62897448689998e+04
  First LP Iters   :         47
  First LP Time    :       0.00
  Final Dual Bound : +6.00850000000000e+04
  Final Root Iters :         93
  Root LP Estimate :                     -
Solution           :
  Solutions found  :          9 (5 improvements)
  First Solution   : +7.16940000000000e+04   (in run 1, after 1 nodes, 0.01 seconds, depth 2, found by <locks>)
  Gap First Sol.   :    6261.49 %
  Gap Last Sol.    :       0.00 %
  Primal Bound     : +6.00850000000000e+04   (in run 1, after 1 nodes, 0.03 seconds, depth 1, found by <farkasdiving>)
  Dual Bound       : +6.00850000000000e+04
  Gap              :       0.00 %
Integrals          :      Total       Avg%
  primal-dual      :       1.10      36.66
  primal-ref       :          -          - (not evaluated)
  dual-ref         :          -          - (not evaluated)

SCIP> checksol

check best solution
solution is feasible in original problem
Violation          :    absolute    relative
  bounds           : 2.22045e-16 2.22045e-16
  integrality      : 2.22045e-16           -
  LP rows          : 1.42109e-14 1.42109e-14
  constraints      : 1.42109e-14 1.42109e-14

SCIP> write sol /local/tmp/bzfhende-tmpdir/bzfhende.instancegroups_fixedCostNetwoorkFlow.19_l61x114.scip.M620.periodic_report.sol

written solution information to file </local/tmp/bzfhende-tmpdir/bzfhende.instancegroups_fixedCostNetworkFlow.19_l61x114.scip.M620.periodic_report.sol>

SCIP> quit

Read MPS: 1
MIP has 228 vars and 175 constraints
@04 1583705920
-----------------------------
So 8. Mär 23:18:40 CET 2020
-----------------------------

=ready=
